rcpsp/heur_output_log_0/heurj120.txt
encoding rcpsp/j120.sm/j1206_10.sm nv: 1569715 nc: 3424173 enctime: 41.12
encoding rcpsp/j120.sm/j1206_10.sm nv: 427721 nc: 928805 enctime: 7.68
c File: j1206_10.smnaiveor1000.wcnf
c timeout
c final solution cost: 201
c CPU time: 66.340451
s UNKNOWN

c File: j1206_10.smor1000.wcnf
c timeout
c final solution cost: 189
c CPU time: 60.939586
s UNKNOWN


rcpsp/heur_output_log_0/heurj120.txt
encoding rcpsp/j120.sm/j1206_1.sm nv: 1268560 nc: 2702873 enctime: 31.31
encoding rcpsp/j120.sm/j1206_1.sm nv: 359560 nc: 762923 enctime: 5.15
c File: j1206_1.smnaiveor1000.wcnf
c timeout
c final solution cost: 176
c CPU time: 64.768120
s UNKNOWN

c File: j1206_1.smor1000.wcnf
c timeout
c final solution cost: 162
c CPU time: 60.770050
s UNKNOWN


rcpsp/heur_output_log_0/heurj120.txt
encoding rcpsp/j120.sm/j1206_2.sm nv: 1315944 nc: 2760796 enctime: 29.23
encoding rcpsp/j120.sm/j1206_2.sm nv: 362556 nc: 757744 enctime: 4.82
c File: j1206_2.smnaiveor1000.wcnf
c timeout
c final solution cost: 162
c CPU time: 64.530416
s UNKNOWN

c File: j1206_2.smor1000.wcnf
c timeout
c final solution cost: 146
c CPU time: 60.756872
s UNKNOWN


rcpsp/heur_output_log_0/heurj120.txt
encoding rcpsp/j120.sm/j1206_3.sm nv: 1525206 nc: 3227388 enctime: 35.01
encoding rcpsp/j120.sm/j1206_3.sm nv: 380121 nc: 800933 enctime: 5.38
c File: j1206_3.smnaiveor1000.wcnf
c timeout
c final solution cost: 214
c CPU time: 65.315581
s UNKNOWN

c File: j1206_3.smor1000.wcnf
c timeout
c final solution cost: 140
c CPU time: 60.773457
s UNKNOWN


rcpsp/heur_output_log_0/heurj120.txt
encoding rcpsp/j120.sm/j1206_4.sm nv: 1197700 nc: 2531179 enctime: 27.34
encoding rcpsp/j120.sm/j1206_4.sm nv: 381640 nc: 803785 enctime: 6.19
c File: j1206_4.smnaiveor1000.wcnf
c timeout
c final solution cost: 174
c CPU time: 64.573921
s UNKNOWN

c File: j1206_4.smor1000.wcnf
c timeout
c final solution cost: 175
c CPU time: 60.829763
s UNKNOWN


rcpsp/heur_output_log_0/heurj120.txt
encoding rcpsp/j120.sm/j1206_5.sm nv: 1640886 nc: 3465319 enctime: 36.69
encoding rcpsp/j120.sm/j1206_5.sm nv: 383877 nc: 807013 enctime: 5.27
c File: j1206_5.smnaiveor1000.wcnf
c timeout
c final solution cost: 137
c CPU time: 65.659593
s UNKNOWN

c File: j1206_5.smor1000.wcnf
c timeout
c final solution cost: 136
c CPU time: 60.730324
s UNKNOWN


rcpsp/heur_output_log_0/heurj120.txt
encoding rcpsp/j120.sm/j1206_6.sm nv: 1517369 nc: 3265068 enctime: 39.37
encoding rcpsp/j120.sm/j1206_6.sm nv: 424515 nc: 909684 enctime: 6.12
c File: j1206_6.smnaiveor1000.wcnf
c timeout
c final solution cost: 237
c CPU time: 66.358172
s UNKNOWN

c File: j1206_6.smor1000.wcnf
c timeout
c final solution cost: 165
c CPU time: 60.921063
s UNKNOWN


rcpsp/heur_output_log_0/heurj120.txt
encoding rcpsp/j120.sm/j1206_7.sm nv: 1398754 nc: 3018830 enctime: 34.69
encoding rcpsp/j120.sm/j1206_7.sm nv: 420034 nc: 902990 enctime: 7.64
c File: j1206_7.smnaiveor1000.wcnf
c timeout
c final solution cost: 188
c CPU time: 66.255706
s UNKNOWN

c File: j1206_7.smor1000.wcnf
c timeout
c final solution cost: 182
c CPU time: 60.910965
s UNKNOWN


rcpsp/heur_output_log_0/heurj120.txt
encoding rcpsp/j120.sm/j1206_8.sm nv: 1509420 nc: 3212589 enctime: 35.98
encoding rcpsp/j120.sm/j1206_8.sm nv: 413947 nc: 877464 enctime: 5.80
c File: j1206_8.smnaiveor1000.wcnf
c timeout
c final solution cost: 225
c CPU time: 65.407990
s UNKNOWN

c File: j1206_8.smor1000.wcnf
c timeout
c final solution cost: 157
c CPU time: 60.852358
s UNKNOWN


rcpsp/heur_output_log_0/heurj120.txt
encoding rcpsp/j120.sm/j1206_9.sm nv: 1492029 nc: 3207632 enctime: 37.28
encoding rcpsp/j120.sm/j1206_9.sm nv: 424141 nc: 908176 enctime: 6.38
c File: j1206_9.smnaiveor1000.wcnf
c timeout
c final solution cost: 406
c CPU time: 66.296765
s UNKNOWN

c File: j1206_9.smor1000.wcnf
c timeout
c final solution cost: 174
c CPU time: 60.887793
s UNKNOWN


rcpsp/heur_output_log_0/heurj120.txt
encoding rcpsp/j120.sm/j1207_10.sm nv: 1881946 nc: 3940012 enctime: 41.08
encoding rcpsp/j120.sm/j1207_10.sm nv: 415008 nc: 865143 enctime: 5.61
c File: j1207_10.smnaiveor1000.wcnf
c timeout
c final solution cost: 129
c CPU time: 65.966373
s UNKNOWN

c File: j1207_10.smor1000.wcnf
c timeout
c final solution cost: 125
c CPU time: 60.749202
s UNKNOWN


rcpsp/heur_output_log_0/heurj120.txt
encoding rcpsp/j120.sm/j1207_1.sm nv: 2202960 nc: 4590698 enctime: 47.01
encoding rcpsp/j120.sm/j1207_1.sm nv: 384696 nc: 797671 enctime: 5.50
c File: j1207_1.smnaiveor1000.wcnf
c timeout
c final solution cost: 108
c CPU time: 66.758182
s UNKNOWN

c File: j1207_1.smor1000.wcnf
c timeout
c final solution cost: 113
c CPU time: 60.682606
s UNKNOWN


rcpsp/heur_output_log_0/heurj120.txt
encoding rcpsp/j120.sm/j1207_2.sm nv: 1734790 nc: 3611725 enctime: 38.12
encoding rcpsp/j120.sm/j1207_2.sm nv: 359410 nc: 744811 enctime: 5.00
c File: j1207_2.smnaiveor1000.wcnf
c timeout
c final solution cost: 119
c CPU time: 65.294281
s UNKNOWN

c File: j1207_2.smor1000.wcnf
c timeout
c final solution cost: 120
c CPU time: 60.660207
s UNKNOWN


rcpsp/heur_output_log_0/heurj120.txt
encoding rcpsp/j120.sm/j1207_3.sm nv: 2017379 nc: 4190773 enctime: 41.94
encoding rcpsp/j120.sm/j1207_3.sm nv: 370539 nc: 766053 enctime: 4.94
c File: j1207_3.smnaiveor1000.wcnf
c timeout
c final solution cost: 105
c CPU time: 65.821127
s UNKNOWN

c File: j1207_3.smor1000.wcnf
c timeout
c final solution cost: 102
c CPU time: 60.654899
s UNKNOWN


rcpsp/heur_output_log_0/heurj120.txt
encoding rcpsp/j120.sm/j1207_4.sm nv: 1747444 nc: 3637470 enctime: 36.76
encoding rcpsp/j120.sm/j1207_4.sm nv: 378518 nc: 784659 enctime: 5.08
c File: j1207_4.smnaiveor1000.wcnf
c timeout
c final solution cost: 124
c CPU time: 65.193289
s UNKNOWN

c File: j1207_4.smor1000.wcnf
c timeout
c final solution cost: 122
c CPU time: 60.682746
s UNKNOWN


rcpsp/heur_output_log_0/heurj120.txt
encoding rcpsp/j120.sm/j1207_5.sm nv: 1932138 nc: 4107276 enctime: 43.35
encoding rcpsp/j120.sm/j1207_5.sm nv: 425178 nc: 899596 enctime: 5.58
c File: j1207_5.smnaiveor1000.wcnf
c timeout
c final solution cost: 151
c CPU time: 67.005632
s UNKNOWN

c File: j1207_5.smor1000.wcnf
c timeout
c final solution cost: 141
c CPU time: 60.838231
s UNKNOWN


rcpsp/heur_output_log_0/heurj120.txt
encoding rcpsp/j120.sm/j1207_6.sm nv: 1881006 nc: 3973901 enctime: 42.23
encoding rcpsp/j120.sm/j1207_6.sm nv: 421652 nc: 886765 enctime: 5.59
c File: j1207_6.smnaiveor1000.wcnf
c timeout
c final solution cost: 132
c CPU time: 66.028603
s UNKNOWN

c File: j1207_6.smor1000.wcnf
c timeout
c final solution cost: 130
c CPU time: 60.754866
s UNKNOWN


rcpsp/heur_output_log_0/heurj120.txt
encoding rcpsp/j120.sm/j1207_7.sm nv: 2114912 nc: 4437989 enctime: 46.04
encoding rcpsp/j120.sm/j1207_7.sm nv: 421138 nc: 879631 enctime: 5.93
c File: j1207_7.smnaiveor1000.wcnf
c timeout
c final solution cost: 216
c CPU time: 66.677806
s UNKNOWN

c File: j1207_7.smor1000.wcnf
c timeout
c final solution cost: 130
c CPU time: 60.760078
s UNKNOWN


rcpsp/heur_output_log_0/heurj120.txt
encoding rcpsp/j120.sm/j1207_8.sm nv: 1775835 nc: 3685074 enctime: 35.41
encoding rcpsp/j120.sm/j1207_8.sm nv: 332785 nc: 687254 enctime: 4.58
c File: j1207_8.smnaiveor1000.wcnf
c timeout
c final solution cost: 104
c CPU time: 65.259855
s UNKNOWN

c File: j1207_8.smor1000.wcnf
c timeout
c final solution cost: 104
c CPU time: 60.574026
s UNKNOWN


rcpsp/heur_output_log_0/heurj120.txt
encoding rcpsp/j120.sm/j1207_9.sm nv: 2204800 nc: 4566856 enctime: 44.03
encoding rcpsp/j120.sm/j1207_9.sm nv: 347945 nc: 716779 enctime: 4.95
c File: j1207_9.smnaiveor1000.wcnf
c timeout
c final solution cost: 95
c CPU time: 66.312713
s UNKNOWN

c File: j1207_9.smor1000.wcnf
c timeout
c final solution cost: 95
c CPU time: 60.617259
s UNKNOWN


rcpsp/heur_output_log_0/heurj120.txt
encoding rcpsp/j120.sm/j1208_10.sm nv: 2951835 nc: 6105604 enctime: 58.02
encoding rcpsp/j120.sm/j1208_10.sm nv: 439635 nc: 904804 enctime: 5.89
c File: j1208_10.smnaiveor1000.wcnf
c timeout
c final solution cost: 98
c CPU time: 67.847575
s UNKNOWN

c File: j1208_10.smor1000.wcnf
c timeout
c final solution cost: 97
c CPU time: 60.700131
s UNKNOWN


rcpsp/heur_output_log_0/heurj120.txt
encoding rcpsp/j120.sm/j1208_1.sm nv: 2949304 nc: 6085746 enctime: 58.71
encoding rcpsp/j120.sm/j1208_1.sm nv: 438986 nc: 901368 enctime: 6.08
c File: j1208_1.smnaiveor1000.wcnf
c optimal
c final solution cost: 95
c CPU time: 37.990257
s OPTIMUM FOUND

c File: j1208_1.smor1000.wcnf
c optimal
c final solution cost: 95
c CPU time: 16.812553
s OPTIMUM FOUND


rcpsp/heur_output_log_0/heurj120.txt
encoding rcpsp/j120.sm/j1208_2.sm nv: 2440612 nc: 5077897 enctime: 49.95
encoding rcpsp/j120.sm/j1208_2.sm nv: 427372 nc: 884977 enctime: 5.76
c File: j1208_2.smnaiveor1000.wcnf
c timeout
c final solution cost: 108
c CPU time: 67.062374
s UNKNOWN

c File: j1208_2.smor1000.wcnf
c timeout
c final solution cost: 106
c CPU time: 60.715993
s UNKNOWN


rcpsp/heur_output_log_0/heurj120.txt
encoding rcpsp/j120.sm/j1208_3.sm nv: 2154249 nc: 4447490 enctime: 43.09
encoding rcpsp/j120.sm/j1208_3.sm nv: 374652 nc: 769793 enctime: 4.92
c File: j1208_3.smnaiveor1000.wcnf
c timeout
c final solution cost: 97
c CPU time: 65.899353
s UNKNOWN

c File: j1208_3.smor1000.wcnf
c timeout
c final solution cost: 97
c CPU time: 60.636871
s UNKNOWN


rcpsp/heur_output_log_0/heurj120.txt
encoding rcpsp/j120.sm/j1208_4.sm nv: 2451739 nc: 5087585 enctime: 49.25
encoding rcpsp/j120.sm/j1208_4.sm nv: 389801 nc: 804663 enctime: 5.74
c File: j1208_4.smnaiveor1000.wcnf
c timeout
c final solution cost: 104
c CPU time: 66.872017
s UNKNOWN

c File: j1208_4.smor1000.wcnf
c timeout
c final solution cost: 98
c CPU time: 60.671874
s UNKNOWN


rcpsp/heur_output_log_0/heurj120.txt
encoding rcpsp/j120.sm/j1208_5.sm nv: 2294289 nc: 4783104 enctime: 48.92
encoding rcpsp/j120.sm/j1208_5.sm nv: 397542 nc: 824651 enctime: 4.11
c File: j1208_5.smnaiveor1000.wcnf
c timeout
c final solution cost: 107
c CPU time: 66.723774
s UNKNOWN

c File: j1208_5.smor1000.wcnf
c timeout
c final solution cost: 108
c CPU time: 60.702634
s UNKNOWN


rcpsp/heur_output_log_0/heurj120.txt
encoding rcpsp/j120.sm/j1208_6.sm nv: 2293395 nc: 4719226 enctime: 45.80
encoding rcpsp/j120.sm/j1208_6.sm nv: 355680 nc: 728213 enctime: 4.94
c File: j1208_6.smnaiveor1000.wcnf
c timeout
c final solution cost: 87
c CPU time: 66.047254
s UNKNOWN

c File: j1208_6.smor1000.wcnf
c timeout
c final solution cost: 86
c CPU time: 60.585544
s UNKNOWN


rcpsp/heur_output_log_0/heurj120.txt
encoding rcpsp/j120.sm/j1208_7.sm nv: 2538075 nc: 5225044 enctime: 50.36
encoding rcpsp/j120.sm/j1208_7.sm nv: 393500 nc: 806184 enctime: 5.24
c File: j1208_7.smnaiveor1000.wcnf
c timeout
c final solution cost: 91
c CPU time: 66.679108
s UNKNOWN

c File: j1208_7.smor1000.wcnf
c timeout
c final solution cost: 90
c CPU time: 60.661057
s UNKNOWN


rcpsp/heur_output_log_0/heurj120.txt
encoding rcpsp/j120.sm/j1208_8.sm nv: 2614830 nc: 5377188 enctime: 51.61
encoding rcpsp/j120.sm/j1208_8.sm nv: 397292 nc: 813020 enctime: 5.65
c File: j1208_8.smnaiveor1000.wcnf
c timeout
c final solution cost: 206
c CPU time: 66.804255
s UNKNOWN

c File: j1208_8.smor1000.wcnf
c timeout
c final solution cost: 89
c CPU time: 60.637424
s UNKNOWN


rcpsp/heur_output_log_0/heurj120.txt
encoding rcpsp/j120.sm/j1208_9.sm nv: 2554104 nc: 5274606 enctime: 50.44
encoding rcpsp/j120.sm/j1208_9.sm nv: 425040 nc: 873769 enctime: 4.35
c File: j1208_9.smnaiveor1000.wcnf
c timeout
c final solution cost: 99
c CPU time: 66.814471
s UNKNOWN

c File: j1208_9.smor1000.wcnf
c timeout
c final solution cost: 102
c CPU time: 60.710836
s UNKNOWN


rcpsp/heur_output_log_0/heurj120.txt
encoding rcpsp/j120.sm/j1209_10.sm nv: 2900784 nc: 5961206 enctime: 56.19
encoding rcpsp/j120.sm/j1209_10.sm nv: 403248 nc: 824438 enctime: 6.09
c File: j1209_10.smnaiveor1000.wcnf
c optimal
c final solution cost: 84
c CPU time: 29.547039
s OPTIMUM FOUND

c File: j1209_10.smor1000.wcnf
c optimal
c final solution cost: 84
c CPU time: 9.837206
s OPTIMUM FOUND


rcpsp/heur_output_log_0/heurj120.txt
encoding rcpsp/j120.sm/j1209_1.sm nv: 2785212 nc: 5731381 enctime: 55.41
encoding rcpsp/j120.sm/j1209_1.sm nv: 405654 nc: 830584 enctime: 5.58
c File: j1209_1.smnaiveor1000.wcnf
c optimal
c final solution cost: 88
c CPU time: 25.676837
s OPTIMUM FOUND

c File: j1209_1.smor1000.wcnf
c optimal
c final solution cost: 88
c CPU time: 3.414694
s OPTIMUM FOUND


rcpsp/heur_output_log_0/heurj120.txt
encoding rcpsp/j120.sm/j1209_2.sm nv: 2862081 nc: 5856402 enctime: 55.04
encoding rcpsp/j120.sm/j1209_2.sm nv: 470295 nc: 958554 enctime: 6.46
c File: j1209_2.smnaiveor1000.wcnf
c optimal
c final solution cost: 94
c CPU time: 12.304855
s OPTIMUM FOUND

c File: j1209_2.smor1000.wcnf
c optimal
c final solution cost: 94
c CPU time: 1.431874
s OPTIMUM FOUND


rcpsp/heur_output_log_0/heurj120.txt
encoding rcpsp/j120.sm/j1209_3.sm nv: 2718009 nc: 5593503 enctime: 54.48
encoding rcpsp/j120.sm/j1209_3.sm nv: 384741 nc: 787659 enctime: 5.48
c File: j1209_3.smnaiveor1000.wcnf
c optimal
c final solution cost: 87
c CPU time: 31.744792
s OPTIMUM FOUND

c File: j1209_3.smor1000.wcnf
c optimal
c final solution cost: 87
c CPU time: 1.452617
s OPTIMUM FOUND


rcpsp/heur_output_log_0/heurj120.txt
encoding rcpsp/j120.sm/j1209_4.sm nv: 2845568 nc: 5876673 enctime: 57.63
encoding rcpsp/j120.sm/j1209_4.sm nv: 388784 nc: 798567 enctime: 5.55
c File: j1209_4.smnaiveor1000.wcnf
c timeout
c final solution cost: 90
c CPU time: 67.439739
s UNKNOWN

c File: j1209_4.smor1000.wcnf
c timeout
c final solution cost: 93
c CPU time: 60.644653
s UNKNOWN


rcpsp/heur_output_log_0/heurj120.txt
encoding rcpsp/j120.sm/j1209_5.sm nv: 3202212 nc: 6572426 enctime: 62.70
encoding rcpsp/j120.sm/j1209_5.sm nv: 563703 nc: 1152816 enctime: 7.68
c File: j1209_5.smnaiveor1000.wcnf
c optimal
c final solution cost: 114
c CPU time: 11.421269
s OPTIMUM FOUND

c File: j1209_5.smor1000.wcnf
c optimal
c final solution cost: 114
c CPU time: 1.526782
s OPTIMUM FOUND


rcpsp/heur_output_log_0/heurj120.txt
encoding rcpsp/j120.sm/j1209_6.sm nv: 3089856 nc: 6375734 enctime: 62.92
encoding rcpsp/j120.sm/j1209_6.sm nv: 469623 nc: 964526 enctime: 4.88
c File: j1209_6.smnaiveor1000.wcnf
c optimal
c final solution cost: 98
c CPU time: 23.768229
s OPTIMUM FOUND

c File: j1209_6.smor1000.wcnf
c optimal
c final solution cost: 98
c CPU time: 5.166723
s OPTIMUM FOUND


rcpsp/heur_output_log_0/heurj120.txt
encoding rcpsp/j120.sm/j1209_7.sm nv: 3459870 nc: 7063416 enctime: 63.81
encoding rcpsp/j120.sm/j1209_7.sm nv: 446770 nc: 907876 enctime: 6.91
c File: j1209_7.smnaiveor1000.wcnf
c optimal
c final solution cost: 80
c CPU time: 13.285997
s OPTIMUM FOUND

c File: j1209_7.smor1000.wcnf
c optimal
c final solution cost: 80
c CPU time: 2.254074
s OPTIMUM FOUND


rcpsp/heur_output_log_0/heurj120.txt
encoding rcpsp/j120.sm/j1209_8.sm nv: 3381525 nc: 6908418 enctime: 63.77
encoding rcpsp/j120.sm/j1209_8.sm nv: 442395 nc: 899530 enctime: 6.15
c File: j1209_8.smnaiveor1000.wcnf
c optimal
c final solution cost: 80
c CPU time: 11.829465
s OPTIMUM FOUND

c File: j1209_8.smor1000.wcnf
c optimal
c final solution cost: 80
c CPU time: 1.563283
s OPTIMUM FOUND


rcpsp/heur_output_log_0/heurj120.txt
encoding rcpsp/j120.sm/j1209_9.sm nv: 2573836 nc: 5278219 enctime: 49.44
encoding rcpsp/j120.sm/j1209_9.sm nv: 426214 nc: 870352 enctime: 5.85
c File: j1209_9.smnaiveor1000.wcnf
c optimal
c final solution cost: 87
c CPU time: 27.690101
s OPTIMUM FOUND

c File: j1209_9.smor1000.wcnf
c optimal
c final solution cost: 87
c CPU time: 5.504419
s OPTIMUM FOUND


